NAME : XML100_2373_18
DIMENSION : 101
NB_CLUSTERS : 4
CLUSTERING_ALG : KMeans
CLUSTERING_PARAMS : k(3)
CLUSTERS
1 0
2 2 4 5 6 7 8 9 10 12 18 21 26 32 33 35 38 43 45 46 48 58 59 61 62 66 67 68 70 72 74 77 80 82 85 86 87 90 91 95
3 1 3 11 13 17 19 20 22 24 25 27 28 29 30 34 37 39 40 42 44 47 49 50 53 54 55 63 64 65 69 71 76 78 79 81 88 89 92 93 94 97 98 99
4 14 15 16 23 31 36 41 51 52 56 57 60 73 75 83 84 96 100
EOF